Normalized Data/p02_20_normalized_split0.vrp
NAME:p02_20_NORMALIZED_split
BEST_KNOWN: 0
COMMENT: 0
DIMENSION: 258
CAPACITY: 100
EDGE_WEIGHT_FORMAT: FUNCTION
EDGE_WEIGHT_TYPE: EXACT_2D
NODE_COORD_SECTION
1 0.00000 0.00000
2 16 34
3 16 34
4 16 34
5 16 34
6 16 34
7 16 34
8 -6 -36
9 -6 -36
10 -6 -36
11 -6 -36
12 -6 -36
13 42 26
14 29 32
15 29 32
16 29 32
17 29 32
18 29 32
19 29 32
20 -6 -7
21 -6 -7
22 -6 -7
23 -6 -7
24 -6 -7
25 47 23
26 47 23
27 47 23
28 47 23
29 -1 -2
30 49 -42
31 49 -42
32 49 -42
33 46 6
34 46 6
35 46 6
36 42 47
37 42 47
38 25 39
39 25 39
40 25 39
41 25 39
42 -37 -12
43 -37 -12
44 -37 -12
45 -37 -12
46 -10 -4
47 -10 -4
48 -10 -4
49 -10 -4
50 -10 -4
51 -40 -49
52 -40 -49
53 -41 13
54 -41 13
55 11 -23
56 11 -23
57 11 -23
58 22 -37
59 22 -37
60 22 -37
61 8 -43
62 8 -43
63 8 -43
64 8 -43
65 8 -43
66 -21 4
67 -21 4
68 -21 4
69 -24 -19
70 -24 -19
71 -24 -19
72 -24 -19
73 -24 -19
74 -13 -1
75 -13 -1
76 -13 -1
77 -13 -1
78 -39 -25
79 -39 -25
80 -40 46
81 -40 46
82 36 1
83 36 1
84 36 1
85 36 1
86 -27 -22
87 -27 -22
88 -27 -22
89 -27 -22
90 -27 -22
91 -27 -22
92 -22 45
93 -22 45
94 -22 45
95 -22 45
96 42 -37
97 7 -38
98 -38 -27
99 -38 -27
100 -38 -27
101 -38 -27
102 24 32
103 24 32
104 24 32
105 -40 34
106 -40 34
107 -40 34
108 -40 34
109 -40 34
110 -40 34
111 -34 50
112 -34 50
113 42 19
114 42 19
115 -1 -48
116 -1 -48
117 -1 -48
118 -1 -48
119 -1 -48
120 -22 -5
121 -22 -5
122 -5 13
123 -5 13
124 -5 13
125 -5 13
126 -5 13
127 39 -25
128 39 -25
129 39 -25
130 39 -25
131 7 -42
132 7 -42
133 7 -42
134 7 -42
135 7 -42
136 7 -42
137 -1 -26
138 -1 -26
139 -1 -26
140 7 -7
141 7 -7
142 7 -7
143 7 -7
144 48 33
145 48 33
146 48 33
147 21 22
148 21 22
149 -22 19
150 -22 19
151 -17 -19
152 15 7
153 15 7
154 15 7
155 7 3
156 7 3
157 -38 -12
158 -38 -12
159 42 22
160 42 22
161 32 -11
162 32 -11
163 32 -11
164 32 -11
165 32 -11
166 19 44
167 19 44
168 19 44
169 19 44
170 19 44
171 19 44
172 10 -6
173 10 -6
174 10 -6
175 15 0
176 15 0
177 15 0
178 -4 -32
179 -4 -32
180 -4 -32
181 -4 -32
182 10 18
183 10 18
184 10 18
185 10 18
186 32 28
187 32 28
188 32 28
189 32 28
190 34 1
191 34 1
192 34 1
193 4 27
194 4 27
195 4 27
196 4 27
197 4 27
198 4 27
199 41 6
200 41 6
201 41 6
202 41 6
203 -18 -30
204 -18 -30
205 35 19
206 35 19
207 -19 37
208 -19 37
209 -19 37
210 -19 37
211 -19 37
212 50 -23
213 50 -23
214 50 -23
215 20 -42
216 20 -42
217 20 -42
218 20 -42
219 20 -42
220 20 -42
221 20 -42
222 -12 -44
223 -12 -44
224 -12 -44
225 -12 -44
226 -9 48
227 -9 48
228 32 -17
229 32 -17
230 32 -17
231 32 -17
232 13 -32
233 13 -32
234 13 -32
235 -42 37
236 -42 37
237 -42 37
238 -43 -18
239 -43 -18
240 9 8
241 9 8
242 9 8
243 9 8
244 -33 -13
245 -33 -13
246 -33 -13
247 39 20
248 39 20
249 39 20
250 -27 -44
251 -27 -44
252 -27 -44
253 -27 -44
254 -33 30
255 -33 30
256 -33 30
257 -33 30
258 23 17
DEMAND_SECTION
1 0
2 20
3 5
4 1
5 1
6 1
7 1
8 20
9 20
10 5
11 1
12 1
13 20
14 20
15 10
16 5
17 1
18 1
19 1
20 20
21 20
22 5
23 1
24 1
25 10
26 5
27 1
28 1
29 20
30 10
31 1
32 1
33 20
34 20
35 5
36 20
37 10
38 10
39 1
40 1
41 1
42 20
43 1
44 1
45 1
46 20
47 20
48 5
49 1
50 1
51 20
52 5
53 20
54 5
55 20
56 1
57 1
58 20
59 10
60 1
61 20
62 20
63 5
64 1
65 1
66 10
67 1
68 1
69 10
70 5
71 1
72 1
73 1
74 20
75 5
76 1
77 1
78 20
79 5
80 20
81 1
82 10
83 1
84 1
85 1
86 20
87 20
88 1
89 1
90 1
91 1
92 20
93 5
94 1
95 1
96 20
97 20
98 20
99 1
100 1
101 1
102 20
103 20
104 5
105 20
106 20
107 1
108 1
109 1
110 1
111 20
112 5
113 20
114 5
115 20
116 20
117 1
118 1
119 1
120 20
121 5
122 20
123 20
124 5
125 1
126 1
127 10
128 5
129 1
130 1
131 20
132 10
133 5
134 1
135 1
136 1
137 10
138 1
139 1
140 20
141 5
142 1
143 1
144 20
145 20
146 5
147 10
148 5
149 20
150 10
151 20
152 20
153 10
154 5
155 20
156 1
157 20
158 5
159 20
160 10
161 20
162 10
163 5
164 1
165 1
166 10
167 5
168 1
169 1
170 1
171 1
172 20
173 10
174 1
175 10
176 1
177 1
178 10
179 5
180 1
181 1
182 20
183 5
184 1
185 1
186 20
187 10
188 5
189 1
190 20
191 20
192 1
193 10
194 5
195 1
196 1
197 1
198 1
199 10
200 1
201 1
202 1
203 20
204 10
205 20
206 10
207 10
208 1
209 1
210 1
211 1
212 20
213 5
214 1
215 20
216 10
217 5
218 1
219 1
220 1
221 1
222 20
223 10
224 1
225 1
226 20
227 20
228 10
229 5
230 1
231 1
232 20
233 20
234 10
235 20
236 20
237 5
238 20
239 10
240 10
241 1
242 1
243 1
244 10
245 1
246 1
247 20
248 1
249 1
250 20
251 10
252 1
253 1
254 20
255 20
256 1
257 1
258 20
DEPOT_SECTION
1
-1
EOF