Normalized Data/p02_20_normalized_split0.sol
257 -5 3 2 6 1 4 40 38 37 39 102 101 146 147 -12 24 25 26 27 158 159 247 248 246 205 -21 22 20 19 23 -28 -47 46 48 45 49 73 74 -56 55 54 231 133 135 130 132 134 131 96 -59 58 57 214 215 217 219 218 220 216 233 232 -60 64 63 61 62 114 117 115 116 118 9 178 -65 66 67 42 41 43 44 156 52 53 148 -69 70 51 50 250 249 252 251 202 203 -75 76 119 120 71 68 72 86 85 89 150 -82 84 198 200 199 201 34 32 33 112 204 -90 87 88 99 98 100 97 78 77 237 238 157 245 244 243 -103 15 13 18 17 14 16 187 188 186 185 257 -111 110 80 79 236 235 234 -113 143 144 145 36 35 167 166 165 168 170 169 -121 123 124 125 122 -136 137 138 180 177 179 11 10 8 7 224 223 222 221 -140 141 139 142 171 172 173 -149 109 104 108 106 107 105 254 256 253 255 -155 154 153 151 152 182 181 183 184 240 239 242 241 -160 161 83 81 191 189 190 176 174 175 -163 164 162 213 212 211 30 31 29 95 128 126 127 129 227 229 228 230 -192 193 194 195 197 196 226 225 91 94 92 93 207 208 210 209 206 0 





OBJ=
2098.206
BEST_KNOWN=
0.000